(declare-sort Loc 0)
(declare-const f1_0_main_Load Loc)
(declare-const f101_0_main_InvokeMethod Loc)
(declare-const f727_0_mirror_NONNULL Loc)
(declare-const f1475_0_main_InvokeMethod Loc)
(declare-const f674_0_createTree_Return Loc)
(declare-const f97_0_createTree_NE Loc)
(declare-const f1458_0_createTree_LE Loc)
(declare-const f179_0_createNode_Return Loc)
(declare-const f1514_0_createTree_NONNULL Loc)
(declare-const f1562_0_createTree_FieldAccess Loc)
(declare-const f1596_0_createTree_LE Loc)
(declare-const f1650_0_createTree_FieldAccess Loc)
(declare-const f1014_0_mirror_InvokeMethod Loc)
(declare-const f554_0_random_GT Loc)
(declare-const __init Loc)
(assert (distinct f1_0_main_Load f101_0_main_InvokeMethod f727_0_mirror_NONNULL f1475_0_main_InvokeMethod f674_0_createTree_Return f97_0_createTree_NE f1458_0_createTree_LE f179_0_createNode_Return f1514_0_createTree_NONNULL f1562_0_createTree_FieldAccess f1596_0_createTree_LE f1650_0_createTree_FieldAccess f1014_0_mirror_InvokeMethod f554_0_random_GT __init ))

(define-fun cfg_init ( (pc Loc) (src Loc) (rel Bool) ) Bool
  (and (= pc src) rel))

(define-fun cfg_trans2 ( (pc Loc) (src Loc)
                         (pc1 Loc) (dst Loc)
                         (rel Bool) ) Bool
  (and (= pc src) (= pc1 dst) rel))

(define-fun cfg_trans3 ( (pc Loc) (exit Loc)
                         (pc1 Loc) (call Loc)
                         (pc2 Loc) (return Loc)
                         (rel Bool) ) Bool
  (and (= pc exit) (= pc1 call) (= pc2 return) rel))

(define-fun init_main ( (pc Loc) (arg1 Int) (arg2 Int) (arg3 Int) (arg4 Int) (arg5 Int) (arg6 Int) (arg7 Int) (arg8 Int) (arg9 Int) ) Bool
  (cfg_init pc __init true))

(define-fun next_main (
                 (pc Loc) (arg1 Int) (arg2 Int) (arg3 Int) (arg4 Int) (arg5 Int) (arg6 Int) (arg7 Int) (arg8 Int) (arg9 Int)
                 (pc1 Loc) (arg1P Int) (arg2P Int) (arg3P Int) (arg4P Int) (arg5P Int) (arg6P Int) (arg7P Int) (arg8P Int) (arg9P Int)
             ) Bool
  (or
    (cfg_trans2 pc f1_0_main_Load pc1 f101_0_main_InvokeMethod (and (and (and (and (and (<= arg1P arg1) (> arg1 0)) (> arg1P 0)) (= 0 arg2)) (= 0 arg2P)) (= 0 arg3P)))
    (cfg_trans2 pc f1_0_main_Load pc1 f101_0_main_InvokeMethod (and (and (and (and (<= arg1P arg1) (> arg1 0)) (> arg1P 0)) (= 1 arg2P)) (= arg2 arg3P)))
    (cfg_trans2 pc f101_0_main_InvokeMethod pc1 f727_0_mirror_NONNULL (and (and (and (<= (+ arg1P 1) arg1) (< arg2 2)) (> arg1 0)) (> arg1P (- 1))))
    (cfg_trans2 pc f1_0_main_Load pc1 f1475_0_main_InvokeMethod (and (and (and (>= arg1 arg1P) (> arg1 0)) (> arg1P 0)) (> arg2P 0)))
    (cfg_trans2 pc f674_0_createTree_Return pc1 f1475_0_main_InvokeMethod (and (and (and (and (and (and (and (and (<= arg1P arg1) (<= (+ arg1P 1) arg2)) (<= arg2P arg2)) (> arg1 0)) (> arg2 1)) (> arg1P 0)) (> arg2P 1)) (<= (+ arg3 2) arg2)) (= arg3 arg3P)))
    (cfg_trans2 pc f1475_0_main_InvokeMethod pc1 f727_0_mirror_NONNULL (and (and (and (and (<= arg1P arg2) (> arg1 0)) (> arg2 0)) (> arg1P 0)) (<= (+ arg3 2) arg2)))
    (cfg_trans2 pc f1_0_main_Load pc1 f97_0_createTree_NE (and (and (and (> arg1 0) (> arg2 0)) (= 0 arg1P)) (= arg2 arg2P)))
    (cfg_trans2 pc f1_0_main_Load pc1 f97_0_createTree_NE (and (and (and (> arg1P (- 1)) (> arg2 0)) (> arg1 0)) (= arg2 arg2P)))
    (cfg_trans2 pc f97_0_createTree_NE pc1 f1458_0_createTree_LE (and (and (and (and (and (and (> arg1 0) (> arg2 0)) (> arg2P 1)) (> arg1P 1)) (= arg1 arg3P)) (= arg2 arg4P)) (= 1 arg5P)))
    (cfg_trans2 pc f97_0_createTree_NE pc1 f1458_0_createTree_LE (and (and (and (and (and (> arg1 0) (> arg2 0)) (> arg2P 1)) (> arg1P 1)) (= arg1 arg3P)) (= arg2 arg4P)))
    (cfg_trans2 pc f179_0_createNode_Return pc1 f1458_0_createTree_LE (and (and (and (and (> arg2P 1) (> arg1P 1)) (= arg1 arg3P)) (= arg2 arg4P)) (= arg3 arg5P)))
    (cfg_trans2 pc f1458_0_createTree_LE pc1 f1514_0_createTree_NONNULL (and (and (and (and (and (and (and (and (and (and (and (and (and (and (and (and (>= arg5 arg4) (> arg4 (- 1))) (> arg3 0)) (<= arg2P arg1)) (<= arg3P arg2)) (<= (+ arg4P 1) arg2)) (> arg1 0)) (> arg2 0)) (> arg2P 0)) (> arg3P 0)) (> arg4P (- 1))) (<= (+ arg7P 2) arg1)) (<= (+ arg8P 2) arg1)) (<= (+ arg9P 2) arg2)) (= arg3 arg1P)) (= arg4 arg5P)) (= arg5 arg6P)))
    (cfg_trans2 pc f1514_0_createTree_NONNULL pc1 f1458_0_createTree_LE (and (and (and (and (and (and (and (and (and (and (and (and (and (<= arg1P arg2) (<= (+ arg2P 2) arg3)) (<= arg2P arg4)) (> arg2 0)) (> arg3 2)) (> arg4 0)) (> arg1P 0)) (> arg2P 0)) (<= (+ arg7 2) arg2)) (<= (+ arg8 2) arg2)) (<= (+ arg9 2) arg3)) (= (- arg1 1) arg3P)) (= arg5 arg4P)) (= arg6 arg5P)))
    (cfg_trans2 pc f1514_0_createTree_NONNULL pc1 f1562_0_createTree_FieldAccess (and (and (and (and (and (and (and (and (and (and (and (and (and (and (and (and (>= arg6 arg5) (> arg1 0)) (<= arg2P arg2)) (<= arg3P arg3)) (> arg2 0)) (> arg3 1)) (> arg4 (- 1))) (> arg2P 0)) (> arg3P 1)) (<= (+ arg7 2) arg2)) (<= (+ arg8 2) arg2)) (<= (+ arg9 2) arg3)) (= arg1 arg1P)) (= arg5 arg4P)) (= arg6 arg5P)) (= arg8 arg6P)) (= arg9 arg7P)))
    (cfg_trans2 pc f1514_0_createTree_NONNULL pc1 f1562_0_createTree_FieldAccess (and (and (and (and (and (and (and (and (and (and (and (and (and (and (and (>= arg6 arg5) (> arg1 0)) (<= arg2P arg2)) (<= arg3P arg3)) (> arg2 0)) (> arg3 1)) (> arg4 (- 1))) (> arg2P 0)) (> arg3P 1)) (<= (+ arg7 2) arg2)) (<= (+ arg8 2) arg2)) (<= (+ arg9 2) arg3)) (= arg1 arg1P)) (= arg5 arg4P)) (= arg8 arg6P)) (= arg9 arg7P)))
    (cfg_trans2 pc f1458_0_createTree_LE pc1 f1596_0_createTree_LE (and (and (and (and (and (and (and (and (and (and (and (and (and (and (and (> arg3 0) (> arg4 (- 1))) (< arg5 arg4)) (> arg5 (- 1))) (<= arg2P arg1)) (<= arg3P arg2)) (> arg1 0)) (> arg2 0)) (> arg2P 0)) (> arg3P 0)) (<= (+ arg7P 2) arg1)) (<= (+ arg8P 2) arg1)) (= arg3 arg1P)) (= 0 arg4P)) (= arg4 arg5P)) (= (+ arg5 1) arg6P)))
    (cfg_trans2 pc f1458_0_createTree_LE pc1 f1596_0_createTree_LE (and (and (and (and (and (and (and (and (and (and (and (and (and (and (and (> arg3 0) (> arg4 (- 1))) (< arg5 arg4)) (> arg5 (- 1))) (> arg4P (- 1))) (<= arg2P arg1)) (<= arg3P arg2)) (> arg1 0)) (> arg2 0)) (> arg2P 0)) (> arg3P 0)) (<= (+ arg7P 2) arg1)) (<= (+ arg8P 2) arg1)) (= arg3 arg1P)) (= arg4 arg5P)) (= (+ arg5 1) arg6P)))
    (cfg_trans2 pc f1562_0_createTree_FieldAccess pc1 f1458_0_createTree_LE (and (and (and (and (and (and (and (and (> arg2 0) (> arg3 1)) (> arg1P 0)) (> arg2P 0)) (<= (+ arg6 2) arg2)) (<= (+ arg7 2) arg3)) (= (- arg1 1) arg3P)) (= arg4 arg4P)) (= arg5 arg5P)))
    (cfg_trans2 pc f1562_0_createTree_FieldAccess pc1 f1458_0_createTree_LE (and (and (and (and (and (and (and (and (and (and (and (and (and (<= (- arg1P 2) arg2) (<= (- arg1P 2) arg3)) (<= (- arg2P 2) arg2)) (<= (- arg2P 2) arg3)) (> arg2 1)) (> arg3 1)) (> arg1P 3)) (> arg2P 3)) (<= (+ arg6 2) arg2)) (<= (+ arg6 2) arg3)) (= arg6 arg7)) (= (- arg1 1) arg3P)) (= arg4 arg4P)) (= arg5 arg5P)))
    (cfg_trans2 pc f1596_0_createTree_LE pc1 f1514_0_createTree_NONNULL (and (and (and (and (and (and (and (and (and (and (and (and (and (and (and (and (<= arg2P arg2) (<= arg3P arg3)) (<= (+ arg4P 1) arg3)) (> arg2 0)) (> arg3 0)) (> arg2P 0)) (> arg3P 0)) (> arg4P (- 1))) (<= (+ arg7 2) arg2)) (<= (+ arg8 2) arg2)) (<= (+ arg9P 2) arg3)) (= 0 arg4)) (= arg1 arg1P)) (= arg5 arg5P)) (= arg6 arg6P)) (= arg7 arg7P)) (= arg8 arg8P)))
    (cfg_trans2 pc f1596_0_createTree_LE pc1 f1458_0_createTree_LE (and (and (and (and (and (and (and (and (and (and (and (<= arg1P arg2) (> arg4 0)) (<= (+ arg2P 2) arg3)) (> arg2 0)) (> arg3 2)) (> arg1P 0)) (> arg2P 0)) (<= (+ arg7 2) arg2)) (<= (+ arg8 2) arg2)) (= (- arg1 1) arg3P)) (= arg5 arg4P)) (= arg6 arg5P)))
    (cfg_trans2 pc f1596_0_createTree_LE pc1 f1650_0_createTree_FieldAccess (and (and (and (and (and (and (and (and (and (and (and (and (and (and (and (> arg4 0) (> arg6 0)) (> arg1 0)) (<= arg2P arg2)) (<= arg3P arg3)) (> arg2 0)) (> arg3 1)) (> arg2P 0)) (> arg3P 1)) (<= (+ arg7 2) arg2)) (<= (+ arg8 2) arg2)) (<= (+ arg7P 2) arg3)) (= arg1 arg1P)) (= arg5 arg4P)) (= arg6 arg5P)) (= arg7 arg6P)))
    (cfg_trans2 pc f1596_0_createTree_LE pc1 f1650_0_createTree_FieldAccess (and (and (and (and (and (and (and (and (and (and (and (and (and (and (> arg4 0) (> arg6 0)) (> arg1 0)) (<= arg2P arg2)) (<= arg3P arg3)) (> arg2 0)) (> arg3 1)) (> arg2P 0)) (> arg3P 1)) (<= (+ arg7 2) arg2)) (<= (+ arg8 2) arg2)) (<= (+ arg7P 2) arg3)) (= arg1 arg1P)) (= arg5 arg4P)) (= arg7 arg6P)))
    (cfg_trans2 pc f1650_0_createTree_FieldAccess pc1 f1458_0_createTree_LE (and (and (and (and (and (and (and (and (> arg2 0) (> arg3 1)) (> arg1P 0)) (> arg2P 0)) (<= (+ arg6 2) arg2)) (<= (+ arg7 2) arg3)) (= (- arg1 1) arg3P)) (= arg4 arg4P)) (= arg5 arg5P)))
    (cfg_trans2 pc f1650_0_createTree_FieldAccess pc1 f1458_0_createTree_LE (and (and (and (and (and (and (and (and (and (and (and (and (and (<= (- arg1P 2) arg2) (<= (- arg1P 2) arg3)) (<= (- arg2P 2) arg2)) (<= (- arg2P 2) arg3)) (> arg2 1)) (> arg3 1)) (> arg1P 3)) (> arg2P 3)) (<= (+ arg6 2) arg2)) (<= (+ arg6 2) arg3)) (= arg6 arg7)) (= (- arg1 1) arg3P)) (= arg4 arg4P)) (= arg5 arg5P)))
    (cfg_trans2 pc f727_0_mirror_NONNULL pc1 f727_0_mirror_NONNULL (and (and (<= (+ arg1P 1) arg1) (> arg1 0)) (> arg1P (- 1))))
    (cfg_trans2 pc f727_0_mirror_NONNULL pc1 f727_0_mirror_NONNULL (and (and (<= (+ arg1P 2) arg1) (> arg1 1)) (> arg1P (- 1))))
    (cfg_trans2 pc f727_0_mirror_NONNULL pc1 f1014_0_mirror_InvokeMethod (and (and (and (and (and (<= (+ arg2P 1) arg1) (<= (+ arg4P 1) arg1)) (> arg1 0)) (> arg1P 4)) (> arg2P (- 1))) (> arg4P (- 1))))
    (cfg_trans2 pc f727_0_mirror_NONNULL pc1 f1014_0_mirror_InvokeMethod (and (and (and (and (and (<= (+ arg2P 1) arg1) (<= (+ arg4P 1) arg1)) (> arg1 0)) (> arg1P 4)) (> arg2P (- 1))) (> arg4P (- 1))))
    (cfg_trans2 pc f727_0_mirror_NONNULL pc1 f1014_0_mirror_InvokeMethod (and (and (and (and (and (<= (+ arg2P 1) arg1) (<= (+ arg4P 1) arg1)) (> arg1 0)) (> arg1P 4)) (> arg2P (- 1))) (> arg4P (- 1))))
    (cfg_trans2 pc f727_0_mirror_NONNULL pc1 f1014_0_mirror_InvokeMethod (and (and (and (and (and (and (<= (- arg1P 3) arg1) (<= (+ arg2P 1) arg1)) (<= (+ arg4P 1) arg1)) (> arg1 0)) (> arg1P 3)) (> arg2P (- 1))) (> arg4P (- 1))))
    (cfg_trans2 pc f1014_0_mirror_InvokeMethod pc1 f727_0_mirror_NONNULL (and (and (and (and (and (and (<= (+ arg1P 2) arg1) (<= arg1P arg2)) (<= arg1P arg4)) (> arg1 2)) (> arg2 (- 1))) (> arg4 (- 1))) (> arg1P (- 1))))
    (cfg_trans2 pc f97_0_createTree_NE pc1 f554_0_random_GT (and (and (and (> arg2 0) (> arg1 0)) (= arg2 arg2P)) (= 1 arg3P)))
    (cfg_trans2 pc f1514_0_createTree_NONNULL pc1 f554_0_random_GT (and (and (and (and (and (and (and (and (and (and (> arg5 (- 1)) (>= arg6 arg5)) (> arg1 0)) (> arg2 0)) (> arg3 1)) (> arg4 (- 1))) (<= (+ arg7 2) arg2)) (<= (+ arg8 2) arg2)) (<= (+ arg9 2) arg3)) (= arg5 arg2P)) (= arg6 arg3P)))
    (cfg_trans2 pc f1596_0_createTree_LE pc1 f554_0_random_GT (and (and (and (and (and (and (and (and (and (> arg1 0) (> arg6 0)) (> arg5 (- 1))) (> arg4 0)) (> arg2 0)) (> arg3 1)) (<= (+ arg7 2) arg2)) (<= (+ arg8 2) arg2)) (= arg5 arg2P)) (= arg6 arg3P)))
    (cfg_trans2 pc __init pc1 f1_0_main_Load true)
  )
)
